results/real/sos1/jan_34_376.in
Version identifier: 22.1.0.0 | 2022-03-09 | 1a383f8ce
CPXPARAM_Threads                                 1
CPXPARAM_MIP_Strategy_VariableSelect             3
CPXPARAM_TimeLimit                               599.99985673200001
1 of 1 MIP starts provided solutions.
MIP start 'm1' defined initial solution with objective 258.0000.
Tried aggregator 2 times.
MIP Presolve eliminated 46 rows and 1129 columns.
MIP Presolve added 36 rows and 9 columns.
MIP Presolve modified 40 coefficients.
Aggregator did 9 substitutions.
Reduced MIP has 2626 rows, 3760 columns, and 99884 nonzeros.
Reduced MIP has 3760 binaries, 0 generals, 0 SOSs, and 0 indicators.
Presolve time = 0.14 sec. (196.94 ticks)
Probing time = 0.02 sec. (14.81 ticks)
Tried aggregator 1 time.
Detecting symmetries...
MIP Presolve modified 11 coefficients.
Reduced MIP has 2626 rows, 3760 columns, and 100012 nonzeros.
Reduced MIP has 3760 binaries, 0 generals, 0 SOSs, and 0 indicators.
Presolve time = 0.09 sec. (149.10 ticks)
Probing time = 0.02 sec. (14.82 ticks)
Clique table members: 1871.
MIP emphasis: balance optimality and feasibility.
MIP search method: dynamic search.
Parallel mode: none, using 1 thread.
Root relaxation solution time = 0.07 sec. (72.81 ticks)

        Nodes                                         Cuts/
   Node  Left     Objective  IInf  Best Integer    Best Bound    ItCnt     Gap

*     0+    0                          258.0000    70876.0000              --- 
      0     0      376.0000   280      258.0000      376.0000     1086   45.74%
*     0+    0                          376.0000      376.0000             0.00%
      0     0        cutoff            376.0000      376.0000     1086    0.00%
Elapsed time = 0.70 sec. (830.00 ticks, tree = 0.01 MB, solutions = 2)

Root node processing (before b&c):
  Real time             =    0.70 sec. (830.19 ticks)
Sequential b&c:
  Real time             =    0.00 sec. (0.00 ticks)
                          ------------
Total (root+branch&cut) =    0.70 sec. (830.19 ticks)
Primal:	376
Dual:	376
Status:	Optimal
Time:	0.76
Sequence:
	5
	0
	5
	9
	10
	9
	5
	9
	5
	0
	5
	9
	9
	6
	4
	9
	5
	9
	5
	0
	5
	9
	5
	9
	5
	9
	6
	0
	5
	9
	6
	9
	5
	9
	6
	9
	5
	0
	5
	9
	5
	9
	5
	9
	9
	5
	0
	5
	9
	5
	9
	6
	4
	9
	9
	5
	9
	5
	9
	5
	9
	5
	9
	9
	5
	9
	9
	1
	9
	9
	5
	9
	5
	9
	5
	9
	5
	9
	5
	0
	5
	9
	1
	9
	1
	9
	1
	9
	1
	0
	1
	9
	1
	9
	1
	4
	5
	0
	4
	5
	0
	4
	1
	4
	5
	0
	1
	9
	0
	1
	9
	0
	1
	4
	1
	0
	1
	4
	4
	1
	4
	4
	1
	4
	1
	4
	1
	0
	1
	4
	1
	0
	1
	4
	0
	5
	4
	1
	4
	1
	4
	5
	0
	5
	9
	6
	0
	3
	4
	5
	0
	5
	4
	10
	0
	5
	9
	5
	0
	1
	9
	5
	9
	1
	9
	5
	9
	1
	0
	1
	9
	10
	0
	1
	9
	0
	1
	9
	10
	0
	1
	9
	0
	1
	9
	1
	0
	1
	9
	9
	1
	0
	1
	4
	9
	1
	9
	1
	9
	9
	5
	9
	1
	4
	1
	9
	1
	9
	5
	0
	5
	9
	5
	9
	6
	0
	5
	9
	6
	0
	4
	1
	0
	1
	9
	5
	9
	1
	0
	1
	4
	0
	3
	4
	1
	9
	1
	0
	5
	9
	5
	0
	5
	9
	3
	4
	5
	2
	1
	4
	6
	0
	1
	4
	6
	9
	5
	0
	5
	4
	10
	4
	5
	0
	5
	9
	0
	1
	9
	6
	0
	9
	5
	9
	1
	0
	5
	9
	1
	9
	6
	9
	5
	9
	0
	1
	9
	1
	0
	9
	1
	9
	5
	0
	5
	9
	1
	0
	1
	9
	6
	0
	1
	9
	1
	0
	1
	9
	1
	0
	10
	9
	5
	4
	9
	1
	9
	9
	1
	9
	4
	5
	9
	5
	9
	5
	9
	5
	9
	1
	4
	9
	10
	4
	5
	9
	5
	9
	1
	9
	6
	9
	3
	0
	10
	4
	5
	9
	1
	9
	5
	0
	3
	9
	1
	9
	1
	9
	1
	0
	1
	9
	5
	9
	5
	4
	10
	4
	1
	9
	5
	0
	4
	1
	0
	5
