results/real/sos1/jan_34_376.out
Version identifier: 22.1.1.0 | 2022-11-28 | 9160aff4d
CPXPARAM_Threads                                 1
CPXPARAM_MIP_Strategy_VariableSelect             3
CPXPARAM_TimeLimit                               599.99999346100003
1 of 1 MIP starts provided solutions.
MIP start 'm1' defined initial solution with objective 110.0000.
Tried aggregator 1 time.
MIP Presolve eliminated 18 rows and 1128 columns.
MIP Presolve modified 33 coefficients.
Reduced MIP has 2251 rows, 3760 columns, and 96111 nonzeros.
Reduced MIP has 3760 binaries, 0 generals, 0 SOSs, and 0 indicators.
Presolve time = 0.06 sec. (152.89 ticks)
Probing time = 0.01 sec. (14.81 ticks)
Tried aggregator 1 time.
Detecting symmetries...
MIP Presolve modified 10 coefficients.
Reduced MIP has 2251 rows, 3760 columns, and 96239 nonzeros.
Reduced MIP has 3760 binaries, 0 generals, 0 SOSs, and 0 indicators.
Presolve time = 0.05 sec. (144.85 ticks)
Probing time = 0.01 sec. (14.82 ticks)
Clique table members: 1496.
MIP emphasis: balance optimality and feasibility.
MIP search method: dynamic search.
Parallel mode: none, using 1 thread.
Root relaxation solution time = 0.03 sec. (70.85 ticks)

        Nodes                                         Cuts/
   Node  Left     Objective  IInf  Best Integer    Best Bound    ItCnt     Gap

*     0+    0                          110.0000    70876.0000              --- 
      0     0      376.0000    36      110.0000      376.0000      593  241.82%
*     0+    0                          376.0000      376.0000             0.00%
      0     0        cutoff            376.0000      376.0000      593    0.00%
Elapsed time = 0.21 sec. (483.11 ticks, tree = 0.01 MB, solutions = 2)

Root node processing (before b&c):
  Real time             =    0.21 sec. (483.30 ticks)
Sequential b&c:
  Real time             =    0.00 sec. (0.00 ticks)
                          ------------
Total (root+branch&cut) =    0.21 sec. (483.30 ticks)
Primal:	376
Dual:	376
Status:	Optimal
Time:	0.23
Sequence:
	0
	5
	5
	9
	5
	5
	9
	5
	5
	0
	4
	3
	5
	9
	9
	5
	5
	0
	9
	5
	6
	9
	4
	0
	9
	9
	0
	5
	9
	0
	5
	6
	9
	9
	4
	9
	0
	4
	9
	0
	9
	6
	9
	9
	9
	10
	5
	9
	5
	9
	9
	9
	1
	9
	1
	0
	9
	1
	9
	9
	0
	9
	4
	0
	4
	5
	9
	5
	5
	9
	5
	9
	5
	5
	0
	9
	5
	5
	9
	5
	5
	9
	5
	1
	5
	9
	5
	9
	5
	5
	9
	9
	5
	5
	0
	4
	1
	5
	4
	1
	0
	5
	4
	0
	6
	9
	5
	0
	5
	9
	5
	5
	1
	4
	0
	5
	1
	4
	1
	1
	6
	4
	1
	4
	5
	0
	5
	4
	1
	1
	4
	5
	1
	4
	0
	6
	4
	1
	9
	0
	5
	5
	9
	0
	9
	9
	5
	5
	9
	9
	5
	5
	9
	5
	9
	5
	5
	9
	5
	6
	2
	5
	5
	1
	4
	1
	1
	9
	0
	1
	9
	0
	1
	1
	9
	0
	1
	1
	4
	0
	1
	1
	4
	1
	9
	1
	1
	9
	0
	9
	5
	5
	9
	4
	9
	4
	9
	0
	9
	10
	1
	0
	4
	1
	5
	9
	6
	9
	9
	0
	9
	6
	0
	4
	10
	0
	4
	1
	0
	9
	5
	0
	6
	9
	1
	9
	0
	1
	9
	0
	4
	9
	0
	5
	10
	9
	0
	9
	9
	0
	5
	9
	6
	0
	4
	9
	0
	5
	10
	9
	9
	5
	0
	1
	4
	0
	10
	1
	4
	4
	0
	4
	6
	0
	9
	10
	0
	4
	9
	10
	5
	5
	9
	0
	9
	6
	0
	9
	5
	5
	1
	9
	6
	1
	4
	0
	1
	1
	4
	5
	9
	5
	0
	9
	1
	1
	1
	9
	1
	9
	1
	1
	9
	1
	9
	5
	5
	9
	3
	5
	5
	9
	1
	9
	9
	9
	9
	5
	1
	0
	4
	9
	9
	5
	0
	1
	9
	0
	10
	9
	0
	9
	9
	9
	1
	1
	3
	9
	1
	1
	4
	5
	1
	1
	9
	1
	3
	1
	9
	9
	0
	9
	9
	9
	1
	1
	1
	9
	1
	1
	1
	9
	1
	1
	1
	9
	1
	1
	1
	9
	1
	1
	3
	4
	0
	4
